52      7       
10      10      10      10      8	8	8
0       0       0       0       0       0	0	0	4       2       3       4       5       
2       1       0       0       0       0	0	4	1       7       
8       0       0       1       0       2	0	0	1       6       
4       0       8       0       0       0	3	0	1       8       
7       5       0       0       7       0	8	0	1       20      
4       6       9       0       7       0	0	5	1       10      
3       0       4       6       2       0	2	0	1       13      
9       8       0       0       4       0	0	1	1       9       
10      0       7       9       3       4	0	0	1       12      
10      2       8       0       7       0	0	4	1       11      
2       0       0       9       9       7	0	0	1       15      
2       2       3       9       9       0	0	5	1       18      
4       2       0       2       10      0	6	0	1       14      
8       10      5       2       4       0	2	0	1       16      
9       9       6       0       7       0	3	0	1       17      
5       4       0       0       0       0	6	0	1       24      
3       0       0       1       0       0	4	0	1       21      
2       0       0       8       0       0	5	0	1       19      
4       0       0       2       0       0	2	0	1       31      
9       4       6       0       0       0	1	0	1       22      
7       0       0       0       10      1	0	0	1       26      
8       0       10      0       7       3	0	0	1       23      
2       6       0       0       0       0	0	6	1       25      
4       8       6       9       0       7	0	0	1       30      
7       2       0       5       0       8	0	0	1       40      
8       3       10      8       0       0	0	3	1       27      
5       0       0       7       8       0	6	0	1       28      
4       6       0       0       0       0	0	3	1       29      
5       3       2       0       9       0	0	2	1       32      
2       0       0       2       0       0	0	1	1       34      
1       0       0       0       6       1	0	0	1       36      
3       1       0       0       7       2	0	0	1       33      
5       0       0       0       7       6	0	0	1       35      
3       1       0       0       5       4	0	0	1       37      
2       8       2       0       0       0	0	3	1       39      
1       0       1       0       0       0	6	0	1       49      
9       9       0       0       2       0	4	0	1       38      
5       2       0       0       7       0	0	4	1       42      
2       0       7       0       3       0	0	2	1       41      
2       0       9       10      3       0	0	3	1       50      
6       0       4       0       0       8	0	0	1       46      
5       1       0       6       4       0	0	4	1       43      
4       1       0       0       10      0	8	0	1       44      
5       3       10      0       0       6	0	0	1       45      
1       2       0       0       2       4	0	0	1       47      
8       3       0       0       0       0	2	0	1       51      
5       6       0       9       0       0	1	0	1       48      
9       0       0       0       7       0	3	0	1       52      
2       0       0       4       0       1	0	0	1       52      
5       2       1       5       7       0	0	3	1       52      
8       10      2       0       2       1	0	0	1       52      
0       0       0       0       0       0	0	0	0       
